# Objective value = 3.0293753097345558e+02
x[0] 0
x[1] 1
x[2] 1
x[3] 0
x[4] 0
x[5] 0
x[6] 1
x[7] 0
x[8] 0
x[9] 1
x[10] 1
x[11] 1
x[12] 1
x[13] 0
x[14] 0
x[15] 1
x[16] 1
x[17] 1
x[18] 0
x[19] 0
x[20] 1
x[21] 0
x[22] 0
x[23] 0
x[24] 0
x[25] 0
x[26] 0
x[27] 0
x[28] 1
x[29] 1
x[30] 0
x[31] 0
x[32] 0
x[33] 0
x[34] 1
x[35] 0
x[36] 1
x[37] 0
x[38] 0
x[39] 0
x[40] 1
x[41] 1
x[42] 1
x[43] 0
x[44] 1
x[45] 0
x[46] 1
x[47] 0
x[48] 0
x[49] 1
x[50] 0
x[51] 1
x[52] 0
x[53] 1
x[54] 1
x[55] 0
x[56] 0
x[57] 1
x[58] 1
x[59] 1
x[60] 1
x[61] 1
x[62] 0
x[63] 1
x[64] 1
x[65] 0
x[66] 1
x[67] 1
x[68] 1
x[69] 0
x[70] 0
x[71] 0
x[72] 1
x[73] 1
x[74] 0
x[75] 0
x[76] 0
x[77] 1
x[78] 0
x[79] 1
x[80] 0
x[81] 0
x[82] 1
x[83] 0
x[84] 0
x[85] 1
x[86] 1
x[87] 1
x[88] 1
x[89] 1
x[90] 1
x[91] 0
x[92] 0
x[93] 0
x[94] 0
x[95] 0
x[96] 1
x[97] 0
x[98] 0
x[99] 0
x[100] 1
x[101] 1
x[102] 0
x[103] 1
x[104] 0
x[105] 1
x[106] 0
x[107] 0
x[108] 0
x[109] 0
x[110] 0
x[111] 0
x[112] 0
x[113] 1
x[114] 0
x[115] 1
x[116] 1
x[117] 1
x[118] 1
x[119] 0
x[120] 0
x[121] 1
x[122] 0
x[123] 0
x[124] 0
x[125] 0
x[126] 0
x[127] 0
x[128] 0
x[129] 0
x[130] 1
x[131] 0
x[132] 0
x[133] 1
x[134] 0
x[135] 0
x[136] 1
x[137] 1
x[138] 0
x[139] 1
x[140] 1
x[141] 1
x[142] 1
x[143] 1
x[144] 0
x[145] 1
x[146] 0
x[147] 0
x[148] 1
x[149] 1
x[150] 1
x[151] 0
x[152] 1
x[153] 0
x[154] 1
x[155] 1
x[156] 0
x[157] 1
x[158] 0
x[159] 0
x[160] 1
x[161] 0
x[162] 0
x[163] 0
x[164] 1
x[165] 0
x[166] 1
x[167] 1
x[168] 0
x[169] 1
x[170] 0
x[171] 0
x[172] 1
x[173] 0
x[174] 1
x[175] 1
x[176] 1
x[177] 1
x[178] 1
x[179] 0
x[180] 1
x[181] 1
x[182] 1
x[183] 0
x[184] 0
x[185] 1
x[186] 0
x[187] 0
x[188] 0
x[189] 1
x[190] 0
x[191] 1
x[192] 1
x[193] 1
x[194] 0
x[195] 0
x[196] 1
x[197] 0
x[198] 0
x[199] 1
x[200] 0
x[201] 0
x[202] 1
x[203] 0
x[204] 0
x[205] 1
x[206] 0
x[207] 0
x[208] 1
x[209] 0
x[210] 0
x[211] 0
x[212] 1
x[213] 1
x[214] 0
x[215] 0
x[216] 1
x[217] 0
x[218] 0
x[219] 0
x[220] 0
x[221] 0
x[222] 0
x[223] 0
x[224] 1
x[225] 1
x[226] 0
x[227] 0
x[228] 0
x[229] 0
x[230] 1
x[231] 1
x[232] 1
x[233] 0
x[234] 1
x[235] 0
x[236] 0
x[237] 0
x[238] 1
x[239] 1
x[240] 1
x[241] 1
x[242] 0
x[243] 1
x[244] 1
x[245] 0
x[246] 0
x[247] 1
x[248] 0
x[249] 1
x[250] 1
x[251] 0
x[252] 0
x[253] 1
x[254] 0
x[255] 1
x[256] 0
x[257] 1
x[258] 0
x[259] 0
x[260] 0
x[261] 1
x[262] 0
x[263] 0
x[264] 1
x[265] 1
x[266] 1
x[267] 0
x[268] 0
x[269] 0
x[270] 1
x[271] 1
x[272] 1
x[273] 1
x[274] 1
x[275] 0
x[276] 0
x[277] 1
x[278] 1
x[279] 1
x[280] 1
x[281] 0
x[282] 1
x[283] 0
x[284] 0
x[285] 1
x[286] 0
x[287] 0
x[288] 0
x[289] 0
x[290] 1
x[291] 1
x[292] 0
x[293] 0
x[294] 0
x[295] 1
x[296] 1
x[297] 1
x[298] 1
x[299] 0
x[300] 0
x[301] 1
x[302] 1
x[303] 1
x[304] 0
x[305] 0
x[306] 1
x[307] 0
x[308] 0
x[309] 1
x[310] 0
x[311] 0
x[312] 0
x[313] 0
x[314] 0
x[315] 1
x[316] 1
x[317] 1
x[318] 1
x[319] 0
x[320] 1
x[321] 0
x[322] 1
x[323] 0
x[324] 1
x[325] 0
x[326] 0
x[327] 1
x[328] 0
x[329] 1
x[330] 0
x[331] 0
x[332] 0
x[333] 1
x[334] 1
x[335] 1
x[336] 1
x[337] 1
x[338] 0
x[339] 0
x[340] 0
x[341] 0
x[342] 0
x[343] 1
x[344] 1
x[345] 1
x[346] 0
x[347] 1
x[348] 0
x[349] 0
x[350] 0
x[351] 1
x[352] 0
x[353] 1
x[354] 0
x[355] 1
x[356] 1
x[357] 0
x[358] 1
x[359] 0
x[360] 1
x[361] 1
x[362] 0
x[363] 1
x[364] 0
x[365] 1
x[366] 1
x[367] 0
x[368] 0
x[369] 0
x[370] 1
x[371] 1
x[372] 0
x[373] 0
x[374] 0
x[375] 0
x[376] 0
x[377] 1
x[378] 1
x[379] 0
x[380] 0
x[381] 1
x[382] 0
x[383] 1
x[384] 1
x[385] 1
x[386] 1
x[387] 1
x[388] 1
x[389] 0
x[390] 1
x[391] 0
x[392] 1
x[393] 1
x[394] 0
x[395] 0
x[396] 0
x[397] 1
x[398] 0
x[399] 0
x[400] 1
x[401] 1
x[402] 1
x[403] 0
x[404] 1
x[405] 1
x[406] 1
x[407] 0
x[408] 1
x[409] 1
x[410] 0
x[411] 0
x[412] 0
x[413] 0
x[414] 0
x[415] 1
x[416] 1
x[417] 1
x[418] 0
x[419] 1
x[420] 1
x[421] 0
x[422] 0
x[423] 1
x[424] 0
x[425] 0
x[426] 0
x[427] 1
x[428] 0
x[429] 0
x[430] 1
x[431] 1
x[432] 0
x[433] 0
x[434] 1
x[435] 0
x[436] 1
x[437] 0
x[438] 0
x[439] 0
x[440] 0
x[441] 1
x[442] 0
x[443] 0
x[444] 0
x[445] 0
x[446] 1
x[447] 1
x[448] 1
x[449] 1
x[450] 1
x[451] 1
x[452] 0
x[453] 0
x[454] 0
x[455] 1
x[456] 1
x[457] 0
x[458] 0
x[459] 0
x[460] 0
x[461] 0
x[462] 1
x[463] 1
x[464] 1
x[465] 1
x[466] 0
x[467] 1
x[468] 1
x[469] 1
x[470] 1
x[471] 1
x[472] 0
x[473] 0
x[474] 0
x[475] 0
x[476] 0
x[477] 0
x[478] 1
x[479] 1
x[480] 1
x[481] 0
x[482] 1
x[483] 0
x[484] 0
x[485] 0
x[486] 1
x[487] 0
x[488] 1
x[489] 0
x[490] 0
x[491] 0
x[492] 1
x[493] 0
x[494] 0
x[495] 0
x[496] 0
x[497] 1
x[498] 1
x[499] 1
x[500] 0
x[501] 0
x[502] 1
x[503] 1
x[504] 0
x[505] 0
x[506] 1
x[507] 1
x[508] 1
x[509] 1
x[510] 1
x[511] 1
x[512] 0
x[513] 0
x[514] 1
x[515] 1
x[516] 0
x[517] 0
x[518] 0
x[519] 1
x[520] 1
x[521] 0
x[522] 1
x[523] 0
x[524] 1
x[525] 0
x[526] 0
x[527] 0
x[528] 0
x[529] 0
x[530] 0
x[531] 1
x[532] 1
x[533] 0
x[534] 0
x[535] 1
x[536] 1
x[537] 0
x[538] 0
x[539] 1
x[540] 1
x[541] 1
x[542] 0
x[543] 0
x[544] 1
x[545] 0
x[546] 0
x[547] 0
x[548] 1
x[549] 0
x[550] 0
x[551] 1
x[552] 1
x[553] 0
x[554] 1
x[555] 0
x[556] 0
x[557] 0
x[558] 0
x[559] 1
x[560] 1
x[561] 0
x[562] 1
x[563] 0
x[564] 0
x[565] 0
x[566] 0
x[567] 1
x[568] 0
x[569] 0
x[570] 1
x[571] 1
x[572] 0
x[573] 1
x[574] 1
x[575] 0
x[576] 0
x[577] 1
x[578] 0
x[579] 0
x[580] 0
x[581] 0
x[582] 1
x[583] 0
x[584] 0
x[585] 1
x[586] 1
x[587] 0
x[588] 1
x[589] 1
x[590] 0
x[591] 1
x[592] 0
x[593] 0
x[594] 1
x[595] 0
x[596] 1
x[597] 1
x[598] 0
x[599] 0
x[600] 1
x[601] 0
x[602] 0
x[603] 1
x[604] 1
x[605] 1
x[606] 0
x[607] 1
x[608] 0
x[609] 0
x[610] 1
x[611] 0
x[612] 0
x[613] 0
x[614] 0
x[615] 0
x[616] 0
x[617] 1
x[618] 1
x[619] 0
x[620] 1
x[621] 1
x[622] 0
x[623] 0
x[624] 0
x[625] 1
x[626] 0
x[627] 0
x[628] 0
x[629] 1
x[630] 1
x[631] 0
x[632] 0
x[633] 1
x[634] 0
x[635] 0
x[636] 0
x[637] 1
x[638] 1
x[639] 1
x[640] 1
x[641] 1
x[642] 0
x[643] 1
x[644] 1
x[645] 0
x[646] 1
x[647] 0
x[648] 0
x[649] 1
x[650] 0
x[651] 1
x[652] 1
x[653] 0
x[654] 0
x[655] 0
x[656] 0
x[657] 1
x[658] 1
x[659] 1
x[660] 0
x[661] 1
x[662] 0
x[663] 1
x[664] 0
x[665] 0
x[666] 1
x[667] 1
x[668] 0
x[669] 0
x[670] 1
x[671] 0
x[672] 0
x[673] 0
x[674] 1
x[675] 1
x[676] 1
x[677] 0
x[678] 1
x[679] 0
x[680] 0
x[681] 0
x[682] 1
x[683] 1
x[684] 1
x[685] 1
x[686] 0
x[687] 0
x[688] 0
x[689] 1
x[690] 1
x[691] 1
x[692] 1
x[693] 0
x[694] 1
x[695] 1
x[696] 1
x[697] 1
x[698] 1
x[699] 1
x[700] 1
x[701] 1
x[702] 1
x[703] 1
x[704] 0
x[705] 1
x[706] 0
x[707] 0
x[708] 1
x[709] 0
x[710] 1
x[711] 1
x[712] 1
x[713] 0
x[714] 1
x[715] 1
x[716] 0
x[717] 1
x[718] 1
x[719] 0
x[720] 0
x[721] 0
x[722] 1
x[723] 1
x[724] 1
x[725] 0
x[726] 0
x[727] 1
x[728] 0
x[729] 1
x[730] 1
x[731] 1
x[732] 0
x[733] 1
x[734] 0
x[735] 0
x[736] 0
x[737] 1
x[738] 1
x[739] 1
x[740] 0
x[741] 0
x[742] 0
x[743] 1
x[744] 0
x[745] 0
x[746] 0
x[747] 0
x[748] 1
x[749] 0
x[750] 1
x[751] 0
x[752] 1
x[753] 0
x[754] 0
x[755] 0
x[756] 0
x[757] 1
x[758] 1
x[759] 1
x[760] 0
x[761] 0
x[762] 1
x[763] 0
x[764] 1
x[765] 1
x[766] 0
x[767] 0
x[768] 0
x[769] 1
x[770] 0
x[771] 1
x[772] 0
x[773] 1
x[774] 1
x[775] 1
x[776] 0
x[777] 1
x[778] 0
x[779] 0
x[780] 1
x[781] 0
x[782] 0
x[783] 1
x[784] 1
x[785] 1
x[786] 0
x[787] 1
x[788] 1
x[789] 0
x[790] 1
x[791] 1
x[792] 0
x[793] 0
x[794] 1
x[795] 1
x[796] 0
x[797] 0
x[798] 0
x[799] 1
x[800] 1
x[801] 0
x[802] 0
x[803] 1
x[804] 1
x[805] 0
x[806] 0
x[807] 1
x[808] 1
x[809] 0
x[810] 0
x[811] 0
x[812] 0
x[813] 1
x[814] 1
x[815] 1
x[816] 1
x[817] 0
x[818] 1
x[819] 1
x[820] 0
x[821] 0
x[822] 0
x[823] 1
x[824] 0
x[825] 1
x[826] 1
x[827] 1
x[828] 1
x[829] 0
x[830] 0
x[831] 0
x[832] 1
x[833] 1
x[834] 0
x[835] 0
x[836] 1
x[837] 1
x[838] 0
x[839] 1
x[840] 0
x[841] 0
x[842] 1
x[843] 1
x[844] 1
x[845] 0
x[846] 0
x[847] 0
x[848] 1
x[849] 0
x[850] 0
x[851] 0
x[852] 0
x[853] 1
x[854] 0
x[855] 0
x[856] 0
x[857] 1
x[858] 0
x[859] 1
x[860] 1
x[861] 0
x[862] 1
x[863] 0
x[864] 0
x[865] 1
x[866] 0
x[867] 1
x[868] 0
x[869] 1
x[870] 1
x[871] 1
x[872] 0
x[873] 1
x[874] 0
x[875] 1
x[876] 0
x[877] 0
x[878] 1
x[879] 0
x[880] 1
x[881] 0
x[882] 0
x[883] 0
x[884] 0
x[885] 0
x[886] 1
x[887] 1
x[888] 0
x[889] 0
x[890] 1
x[891] 1
x[892] 0
x[893] 1
x[894] 0
x[895] 1
x[896] 1
x[897] 0
x[898] 0
x[899] 1
x[900] 1
x[901] 1
x[902] 1
x[903] 1
x[904] 1
x[905] 0
x[906] 1
x[907] 1
x[908] 0
x[909] 0
x[910] 1
x[911] 1
x[912] 1
x[913] 0
x[914] 1
x[915] 0
x[916] 0
x[917] 1
x[918] 0
x[919] 1
x[920] 0
x[921] 0
x[922] 0
x[923] 0
x[924] 0
x[925] 0
x[926] 1
x[927] 1
x[928] 0
x[929] 0
x[930] 1
x[931] 0
x[932] 0
x[933] 1
x[934] 0
x[935] 1
x[936] 1
x[937] 1
x[938] 0
x[939] 0
x[940] 1
x[941] 0
x[942] 1
x[943] 1
x[944] 0
x[945] 0
x[946] 0
x[947] 0
x[948] 1
x[949] 0
x[950] 0
x[951] 1
x[952] 0
x[953] 0
x[954] 0
x[955] 0
x[956] 1
x[957] 0
x[958] 0
x[959] 0
x[960] 0
x[961] 1
x[962] 1
x[963] 0
x[964] 1
x[965] 1
x[966] 1
x[967] 1
x[968] 0
x[969] 0
x[970] 0
x[971] 0
x[972] 1
x[973] 1
x[974] 0
x[975] 0
x[976] 0
x[977] 1
x[978] 1
x[979] 1
x[980] 1
x[981] 1
x[982] 0
x[983] 1
x[984] 0
x[985] 1
x[986] 1
x[987] 1
x[988] 1
x[989] 0
x[990] 0
x[991] 1
x[992] 1
x[993] 1
x[994] 0
x[995] 1
x[996] 1
x[997] 1
x[998] 1
x[999] 0
